32      4       
10      10      10      10      
0       0       0       0       0       4       2       5       11      12      
10      1       1       1       0       4       3       6       8       17      
8       7       6       0       1       2       4       13      
9       5       0       4       4       5       7       19      21      30      31      
8       7       3       4       0       6       10      13      15      19      21      31      
8       2       4       3       0       5       10      15      21      29      30      
2       5       3       0       3       4       9       15      25      29      
9       3       0       3       3       2       10      15      
9       5       0       2       5       2       10      16      
5       4       3       9       0       2       14      18      
1       2       0       4       4       3       19      21      22      
1       0       6       4       3       3       19      22      30      
2       3       0       4       5       2       16      30      
10      7       5       2       0       2       20      27      
7       0       2       5       6       1       16      
5       0       2       2       1       2       22      28      
5       0       5       5       4       2       22      27      
6       2       2       0       5       2       23      28      
1       3       5       0       2       2       23      29      
7       3       2       0       3       1       22      
2       0       6       6       5       2       24      27      
6       0       6       4       8       1       23      
5       5       5       0       10      1       24      
7       0       4       4       1       1       26      
9       4       6       0       4       1       26      
9       0       2       3       2       1       32      
4       0       6       6       4       1       32      
7       3       0       1       1       1       32      
7       3       0       7       5       1       32      
4       4       0       4       6       1       32      
1       6       0       5       5       1       32      
0       0       0       0       0       0       
